
ASes= { 1, 2, 3, 4, 5, 6, 7, 8, 9, 10, 11 } ;


Objects= { 1, 2, 3, 4, 5, 6, 7, 8, 9, 10, 11, 12, 13, 14, 15, 16, 17, 18, 19, 20, 21, 22, 23, 24, 25, 26, 27, 28, 29, 30, 31, 32, 33, 34, 35, 36, 37, 38, 39, 40, 41, 42, 43, 44, 45, 46, 47, 48, 49, 50, 51, 52, 53, 54, 55, 56, 57, 58, 59, 60, 61, 62, 63, 64, 65, 66, 67, 68, 69, 70, 71, 72, 73, 74, 75, 76, 77, 78, 79, 80, 81, 82, 83, 84, 85, 86, 87, 88, 89, 90, 91, 92, 93, 94, 95, 96, 97, 98, 99, 100 } ;


QualityLevels= { 0, 1, 2, 3, 4, 5 } ;

Arcs = {<2,1,490000>, <1,2,490000>, <11,1,490000>, <1,11,490000>, <11,2,490000>, <2,11,490000>, <11,10,490000>, <10,11,490000>, <3,2,490000>, <2,3,490000>, <4,3,490000>, <3,4,490000>, <5,4,490000>, <4,5,490000>, <6,5,490000>, <5,6,490000>, <7,6,490000>, <6,7,490000>, <8,4,490000>, <4,8,490000>, <8,7,490000>, <7,8,490000>, <9,3,490000>, <3,9,490000>, <9,8,490000>, <8,9,490000>, <10,9,490000>, <9,10,490000>};


RatePerQuality= [ 0  300  700  1500  2500  3500 ] ;


CacheSpacePerQuality= [ 10000  11.25  26.25  56.25  93.75  131.25 ] ;


UtilityPerQuality= [ 0  0.2  0.4  0.6  0.8  1 ] ;


ObjectsPublishedByProducers=[ [ 0  0  0  0  0  0  0  1  0  0  0 ]  [ 0  0  0  0  0  0  0  1  0  0  0 ]  [ 0  0  0  0  0  0  0  1  0  0  0 ]  [ 0  0  0  0  0  0  0  1  0  0  0 ]  [ 0  0  0  0  0  0  0  1  0  0  0 ]  [ 0  0  0  0  0  0  0  1  0  0  0 ]  [ 0  0  0  0  0  0  0  1  0  0  0 ]  [ 0  0  0  0  0  0  0  1  0  0  0 ]  [ 0  0  0  0  0  0  0  1  0  0  0 ]  [ 0  0  0  0  0  0  0  1  0  0  0 ]  [ 0  0  0  0  0  0  0  1  0  0  0 ]  [ 0  0  0  0  0  0  0  1  0  0  0 ]  [ 0  0  0  0  0  0  0  1  0  0  0 ]  [ 0  0  0  0  0  0  0  1  0  0  0 ]  [ 0  0  0  0  0  0  0  1  0  0  0 ]  [ 0  0  0  0  0  0  0  1  0  0  0 ]  [ 0  0  0  0  0  0  0  1  0  0  0 ]  [ 0  0  0  0  0  0  0  1  0  0  0 ]  [ 0  0  0  0  0  0  0  1  0  0  0 ]  [ 0  0  0  0  0  0  0  1  0  0  0 ]  [ 0  0  0  0  0  0  0  1  0  0  0 ]  [ 0  0  0  0  0  0  0  1  0  0  0 ]  [ 0  0  0  0  0  0  0  1  0  0  0 ]  [ 0  0  0  0  0  0  0  1  0  0  0 ]  [ 0  0  0  0  0  0  0  1  0  0  0 ]  [ 0  0  0  0  0  0  0  1  0  0  0 ]  [ 0  0  0  0  0  0  0  1  0  0  0 ]  [ 0  0  0  0  0  0  0  1  0  0  0 ]  [ 0  0  0  0  0  0  0  1  0  0  0 ]  [ 0  0  0  0  0  0  0  1  0  0  0 ]  [ 0  0  0  0  0  0  0  1  0  0  0 ]  [ 0  0  0  0  0  0  0  1  0  0  0 ]  [ 0  0  0  0  0  0  0  1  0  0  0 ]  [ 0  0  0  0  0  0  0  1  0  0  0 ]  [ 0  0  0  0  0  0  0  1  0  0  0 ]  [ 0  0  0  0  0  0  0  1  0  0  0 ]  [ 0  0  0  0  0  0  0  1  0  0  0 ]  [ 0  0  0  0  0  0  0  1  0  0  0 ]  [ 0  0  0  0  0  0  0  1  0  0  0 ]  [ 0  0  0  0  0  0  0  1  0  0  0 ]  [ 0  0  0  0  0  0  0  1  0  0  0 ]  [ 0  0  0  0  0  0  0  1  0  0  0 ]  [ 0  0  0  0  0  0  0  1  0  0  0 ]  [ 0  0  0  0  0  0  0  1  0  0  0 ]  [ 0  0  0  0  0  0  0  1  0  0  0 ]  [ 0  0  0  0  0  0  0  1  0  0  0 ]  [ 0  0  0  0  0  0  0  1  0  0  0 ]  [ 0  0  0  0  0  0  0  1  0  0  0 ]  [ 0  0  0  0  0  0  0  1  0  0  0 ]  [ 0  0  0  0  0  0  0  1  0  0  0 ]  [ 0  0  0  0  0  0  0  1  0  0  0 ]  [ 0  0  0  0  0  0  0  1  0  0  0 ]  [ 0  0  0  0  0  0  0  1  0  0  0 ]  [ 0  0  0  0  0  0  0  1  0  0  0 ]  [ 0  0  0  0  0  0  0  1  0  0  0 ]  [ 0  0  0  0  0  0  0  1  0  0  0 ]  [ 0  0  0  0  0  0  0  1  0  0  0 ]  [ 0  0  0  0  0  0  0  1  0  0  0 ]  [ 0  0  0  0  0  0  0  1  0  0  0 ]  [ 0  0  0  0  0  0  0  1  0  0  0 ]  [ 0  0  0  0  0  0  0  1  0  0  0 ]  [ 0  0  0  0  0  0  0  1  0  0  0 ]  [ 0  0  0  0  0  0  0  1  0  0  0 ]  [ 0  0  0  0  0  0  0  1  0  0  0 ]  [ 0  0  0  0  0  0  0  1  0  0  0 ]  [ 0  0  0  0  0  0  0  1  0  0  0 ]  [ 0  0  0  0  0  0  0  1  0  0  0 ]  [ 0  0  0  0  0  0  0  1  0  0  0 ]  [ 0  0  0  0  0  0  0  1  0  0  0 ]  [ 0  0  0  0  0  0  0  1  0  0  0 ]  [ 0  0  0  0  0  0  0  1  0  0  0 ]  [ 0  0  0  0  0  0  0  1  0  0  0 ]  [ 0  0  0  0  0  0  0  1  0  0  0 ]  [ 0  0  0  0  0  0  0  1  0  0  0 ]  [ 0  0  0  0  0  0  0  1  0  0  0 ]  [ 0  0  0  0  0  0  0  1  0  0  0 ]  [ 0  0  0  0  0  0  0  1  0  0  0 ]  [ 0  0  0  0  0  0  0  1  0  0  0 ]  [ 0  0  0  0  0  0  0  1  0  0  0 ]  [ 0  0  0  0  0  0  0  1  0  0  0 ]  [ 0  0  0  0  0  0  0  1  0  0  0 ]  [ 0  0  0  0  0  0  0  1  0  0  0 ]  [ 0  0  0  0  0  0  0  1  0  0  0 ]  [ 0  0  0  0  0  0  0  1  0  0  0 ]  [ 0  0  0  0  0  0  0  1  0  0  0 ]  [ 0  0  0  0  0  0  0  1  0  0  0 ]  [ 0  0  0  0  0  0  0  1  0  0  0 ]  [ 0  0  0  0  0  0  0  1  0  0  0 ]  [ 0  0  0  0  0  0  0  1  0  0  0 ]  [ 0  0  0  0  0  0  0  1  0  0  0 ]  [ 0  0  0  0  0  0  0  1  0  0  0 ]  [ 0  0  0  0  0  0  0  1  0  0  0 ]  [ 0  0  0  0  0  0  0  1  0  0  0 ]  [ 0  0  0  0  0  0  0  1  0  0  0 ]  [ 0  0  0  0  0  0  0  1  0  0  0 ]  [ 0  0  0  0  0  0  0  1  0  0  0 ]  [ 0  0  0  0  0  0  0  1  0  0  0 ]  [ 0  0  0  0  0  0  0  1  0  0  0 ]  [ 0  0  0  0  0  0  0  1  0  0  0 ]  [ 0  0  0  0  0  0  0  1  0  0  0 ] ];

ObjRequests = {  <1,5,175>, <2,5,102>, <3,5,7>, <4,5,79>, <5,5,71>, <6,5,6>, <7,5,15>, <8,5,12>, <9,5,15>, <10,5,9>, <11,5,19>, <12,5,10>, <13,5,5>, <14,5,4>, <16,5,4>, <17,5,11>, <18,5,11>, <19,5,9>, <20,5,6>, <21,5,2>, <22,5,2>, <23,5,16>, <24,5,3>, <25,5,1>, <26,5,5>, <27,5,2>, <28,5,13>, <29,5,4>, <30,5,9>, <31,5,1>, <32,5,7>, <33,5,5>, <34,5,29>, <35,5,8>, <36,5,1>, <37,5,6>, <38,5,1>, <39,5,5>, <40,5,7>, <41,5,8>, <42,5,9>, <43,5,2>, <44,5,1>, <45,5,4>, <46,5,2>, <47,5,1>, <48,5,3>, <49,5,1>, <50,5,5>, <51,5,2>, <52,5,5>, <53,5,4>, <57,5,1>, <59,5,5>, <60,5,1>, <61,5,3>, <62,5,4>, <63,5,6>, <64,5,1>, <65,5,4>, <66,5,1>, <67,5,2>, <72,5,2>, <73,5,1>, <74,5,2>, <75,5,2>, <76,5,6>, <77,5,2>, <78,5,4>, <79,5,4>, <80,5,1>, <81,5,1>, <83,5,2>, <84,5,1>, <85,5,1>, <86,5,6>, <87,5,1>, <88,5,4>, <91,5,2>, <92,5,2>, <93,5,1>, <94,5,2>, <96,5,2>, <98,5,1>, <1,6,106>, <2,6,25>, <3,6,31>, <4,6,49>, <5,6,38>, <6,6,5>, <7,6,5>, <8,6,17>, <9,6,10>, <10,6,14>, <11,6,49>, <12,6,3>, <13,6,11>, <14,6,3>, <15,6,25>, <16,6,10>, <17,6,31>, <18,6,7>, <19,6,2>, <20,6,5>, <21,6,13>, <22,6,11>, <23,6,4>, <24,6,1>, <25,6,4>, <26,6,3>, <28,6,1>, <29,6,4>, <30,6,3>, <31,6,1>, <32,6,4>, <33,6,3>, <35,6,1>, <36,6,7>, <37,6,1>, <38,6,7>, <39,6,2>, <40,6,3>, <41,6,5>, <42,6,1>, <43,6,6>, <44,6,2>, <45,6,1>, <46,6,1>, <47,6,4>, <48,6,2>, <49,6,1>, <50,6,1>, <51,6,3>, <52,6,3>, <53,6,1>, <54,6,1>, <55,6,5>, <56,6,7>, <57,6,2>, <58,6,2>, <59,6,5>, <60,6,1>, <61,6,4>, <64,6,6>, <65,6,1>, <67,6,2>, <68,6,2>, <69,6,2>, <70,6,13>, <72,6,3>, <73,6,4>, <76,6,4>, <77,6,1>, <78,6,1>, <81,6,1>, <82,6,1>, <83,6,5>, <84,6,1>, <85,6,2>, <87,6,3>, <89,6,2>, <90,6,1>, <91,6,1>, <92,6,2>, <94,6,2>, <95,6,4>, <97,6,1>, <98,6,1>, <99,6,1>, <1,7,298>, <2,7,162>, <3,7,171>, <4,7,35>, <5,7,3>, <6,7,25>, <7,7,76>, <8,7,14>, <9,7,41>, <10,7,14>, <11,7,5>, <12,7,21>, <13,7,28>, <14,7,11>, <15,7,7>, <16,7,23>, <18,7,8>, <19,7,7>, <20,7,11>, <21,7,9>, <22,7,22>, <23,7,7>, <24,7,13>, <25,7,10>, <26,7,8>, <27,7,4>, <28,7,9>, <29,7,5>, <30,7,9>, <31,7,17>, <32,7,3>, <33,7,3>, <35,7,5>, <36,7,6>, <37,7,1>, <38,7,3>, <39,7,6>, <40,7,1>, <41,7,4>, <42,7,1>, <43,7,4>, <44,7,7>, <45,7,1>, <46,7,1>, <47,7,6>, <49,7,1>, <51,7,4>, <53,7,1>, <54,7,8>, <55,7,3>, <56,7,1>, <57,7,3>, <58,7,2>, <59,7,1>, <60,7,2>, <61,7,2>, <62,7,3>, <63,7,1>, <64,7,1>, <65,7,1>, <66,7,2>, <68,7,3>, <69,7,2>, <70,7,2>, <71,7,5>, <72,7,6>, <73,7,1>, <74,7,3>, <75,7,5>, <76,7,2>, <77,7,1>, <78,7,6>, <79,7,1>, <80,7,6>, <81,7,1>, <82,7,1>, <83,7,1>, <85,7,3>, <86,7,1>, <87,7,3>, <88,7,2>, <89,7,1>, <90,7,2>, <92,7,1>, <94,7,3>, <95,7,1>, <97,7,1>, <99,7,1>, <1,1,180>, <2,1,3>, <3,1,48>, <4,1,4>, <5,1,32>, <6,1,69>, <7,1,25>, <8,1,49>, <9,1,38>, <10,1,34>, <12,1,7>, <13,1,4>, <14,1,17>, <15,1,3>, <16,1,1>, <17,1,1>, <18,1,17>, <19,1,2>, <20,1,5>, <21,1,15>, <22,1,16>, <23,1,4>, <24,1,13>, <25,1,8>, <26,1,3>, <27,1,10>, <28,1,4>, <29,1,6>, <30,1,5>, <31,1,4>, <32,1,6>, <33,1,1>, <34,1,1>, <35,1,8>, <37,1,4>, <38,1,3>, <39,1,1>, <40,1,4>, <42,1,11>, <43,1,2>, <44,1,1>, <45,1,6>, <46,1,4>, <47,1,5>, <48,1,4>, <49,1,8>, <50,1,1>, <51,1,2>, <52,1,2>, <53,1,6>, <56,1,3>, <57,1,2>, <58,1,1>, <59,1,2>, <60,1,2>, <61,1,2>, <62,1,2>, <63,1,7>, <65,1,1>, <66,1,6>, <67,1,3>, <68,1,5>, <69,1,1>, <70,1,2>, <71,1,2>, <72,1,2>, <73,1,1>, <74,1,1>, <75,1,5>, <77,1,8>, <78,1,6>, <79,1,2>, <80,1,1>, <81,1,8>, <82,1,3>, <83,1,2>, <84,1,1>, <86,1,2>, <88,1,3>, <89,1,1>, <91,1,1>, <92,1,4>, <94,1,2>, <95,1,3>, <96,1,1>, <97,1,3>, <98,1,1>, <99,1,9>, <1,10,37>, <2,10,103>, <3,10,8>, <4,10,14>, <5,10,33>, <6,10,20>, <7,10,8>, <8,10,7>, <9,10,2>, <10,10,5>, <11,10,5>, <12,10,23>, <13,10,1>, <14,10,22>, <15,10,8>, <16,10,5>, <17,10,8>, <19,10,21>, <20,10,8>, <21,10,7>, <22,10,2>, <23,10,2>, <24,10,3>, <25,10,1>, <26,10,5>, <27,10,16>, <28,10,3>, <29,10,2>, <31,10,1>, <33,10,9>, <34,10,4>, <35,10,5>, <36,10,5>, <37,10,3>, <38,10,2>, <39,10,4>, <40,10,4>, <42,10,3>, <43,10,2>, <44,10,1>, <45,10,8>, <46,10,4>, <47,10,1>, <48,10,4>, <49,10,9>, <50,10,9>, <51,10,2>, <52,10,1>, <53,10,1>, <54,10,1>, <55,10,2>, <57,10,4>, <58,10,7>, <59,10,1>, <60,10,1>, <61,10,2>, <64,10,3>, <65,10,3>, <66,10,6>, <67,10,1>, <69,10,1>, <70,10,3>, <71,10,2>, <72,10,1>, <73,10,8>, <74,10,1>, <75,10,2>, <78,10,3>, <79,10,1>, <80,10,4>, <81,10,1>, <82,10,2>, <83,10,9>, <84,10,2>, <85,10,4>, <87,10,2>, <88,10,1>, <89,10,3>, <91,10,1>, <92,10,2>, <93,10,3>, <95,10,1>, <96,10,3>, <97,10,3>, <98,10,2>, <99,10,4>, <100,10,6> };

MaxCacheStorageAtSingleAS= [ 131.25  131.25  131.25  131.25  131.25  131.25  131.25  131.25  131.25  131.25  131.25 ] ;

MaxCacheStorage = 1443.75 ;
SolutionGap = 0.01 ;
